5
4
40
1 1.3 1.55 1.75 2.1
33 33 38 35 38 38 23 9 31 40 8 43 25 27 29 30 8 7 19 31 45 25 39 26 25 47 6 12 32 18 21 36 9 11 25 20 49 44 24 36 28 33 33 6 16 22 29 10 8 6 20 30 42 6 27 11 38 48 5 9 35 6 35 20 25 23 13 19 15 15 16 10 7 22 39 41 9 38 32 42 11 19 43 38 48 37 46 19 42 16 14 48 14 32 29 35 28 28 28 46 15 48 29 32 16 48 14 37 30 31 5 47 45 17 46 12 32 26 27 17 41 43 26 32 24 24 27 37 17 21 42 32 37 6 12 28 23 13 49 5 42 41 49 27 48 27 20 25 43 9 21 23 46 38 28 27 27 29 26 44 